p cnf 737 1536
1 0
2 0
3 0
4 0
5 0
6 0
7 0
8 0
9 0
10 0
11 0
12 0
13 0
14 0
15 0
16 0
17 0
18 0
19 0
20 0
21 0
22 0
23 0
24 0
25 0
-26 0
-27 0
-28 0
-29 0
-30 0
-31 0
-32 0
-33 0
-34 0
-35 0
-36 0
-37 0
-38 0
-39 0
-40 0
-41 0
-42 0
-43 0
-44 0
-45 0
-46 0
-47 0
-48 0
-49 0
-50 0
-51 52 0
52 -53 0
51 53 -52 0
1 -52 0
-1 52 0
-54 55 0
-56 55 0
54 56 -55 0
51 -55 0
-51 55 0
-57 58 0
-59 58 0
57 59 -58 0
54 -58 0
-54 58 0
-60 61 0
-62 61 0
60 62 -61 0
57 -61 0
-57 61 0
-63 64 0
64 -65 0
63 65 -64 0
60 -64 0
-60 64 0
-66 67 0
67 -68 0
66 68 -67 0
63 -67 0
-63 67 0
-69 70 0
70 -71 0
69 71 -70 0
66 -70 0
-66 70 0
-72 73 0
73 -74 0
72 74 -73 0
69 -73 0
-69 73 0
-75 76 0
76 -77 0
75 77 -76 0
72 -76 0
-72 76 0
-78 79 0
-80 79 0
78 80 -79 0
75 -79 0
-75 79 0
-68 81 0
-71 81 0
-74 81 0
-77 81 0
-80 81 0
-82 81 0
83 0
78 -81 0
-78 81 0
-84 85 0
-86 85 0
84 86 -85 0
2 -85 0
-2 85 0
-87 88 0
-89 88 0
87 89 -88 0
84 -88 0
-84 88 0
-90 91 0
91 -92 0
90 92 -91 0
87 -91 0
-87 91 0
-93 94 0
-95 94 0
93 95 -94 0
90 -94 0
-90 94 0
-96 97 0
97 -98 0
96 98 -97 0
93 -97 0
-93 97 0
-99 100 0
100 -101 0
99 101 -100 0
96 -100 0
-96 100 0
-102 103 0
-104 103 0
102 104 -103 0
99 -103 0
-99 103 0
-95 105 0
-98 105 0
-101 105 0
-104 105 0
-106 105 0
95 98 101 104 106 -105 0
102 -105 0
-102 105 0
-107 108 0
108 -109 0
107 109 -108 0
3 -108 0
-3 108 0
-110 111 0
-112 111 0
110 112 -111 0
107 -111 0
-107 111 0
-113 114 0
114 -115 0
113 115 -114 0
110 -114 0
-110 114 0
-116 117 0
117 -118 0
116 118 -117 0
113 -117 0
-113 117 0
-119 120 0
120 -121 0
119 121 -120 0
116 -120 0
-116 120 0
-122 123 0
123 -124 0
122 124 -123 0
119 -123 0
-119 123 0
-125 126 0
-127 126 0
125 127 -126 0
122 -126 0
-122 126 0
-128 129 0
-130 129 0
128 130 -129 0
125 -129 0
-125 129 0
-131 132 0
-133 132 0
131 133 -132 0
128 -132 0
-128 132 0
-134 135 0
135 -136 0
134 136 -135 0
131 -135 0
-131 135 0
-124 137 0
-127 137 0
-130 137 0
-133 137 0
-136 137 0
-138 137 0
139 0
134 -137 0
-134 137 0
-140 141 0
141 -142 0
140 142 -141 0
4 -141 0
-4 141 0
-143 144 0
144 -145 0
143 145 -144 0
140 -144 0
-140 144 0
-146 147 0
147 -148 0
146 148 -147 0
143 -147 0
-143 147 0
-149 150 0
-151 150 0
149 151 -150 0
146 -150 0
-146 150 0
-152 153 0
153 -154 0
152 154 -153 0
149 -153 0
-149 153 0
-155 156 0
156 -157 0
155 157 -156 0
152 -156 0
-152 156 0
-158 159 0
-160 159 0
158 160 -159 0
155 -159 0
-155 159 0
-161 162 0
-163 162 0
161 163 -162 0
158 -162 0
-158 162 0
-164 165 0
-166 165 0
164 166 -165 0
161 -165 0
-161 165 0
-167 168 0
168 -169 0
167 169 -168 0
164 -168 0
-164 168 0
-157 170 0
-160 170 0
-163 170 0
-166 170 0
-169 170 0
-171 170 0
172 0
167 -170 0
-167 170 0
-173 174 0
174 -175 0
173 175 -174 0
5 -174 0
-5 174 0
-176 177 0
177 -178 0
176 178 -177 0
173 -177 0
-173 177 0
-179 180 0
-181 180 0
179 181 -180 0
176 -180 0
-176 180 0
-182 183 0
183 -184 0
182 184 -183 0
179 -183 0
-179 183 0
-185 186 0
-187 186 0
185 187 -186 0
182 -186 0
-182 186 0
-188 189 0
-190 189 0
188 190 -189 0
185 -189 0
-185 189 0
-191 192 0
192 -193 0
191 193 -192 0
188 -192 0
-188 192 0
-194 195 0
195 -196 0
194 196 -195 0
191 -195 0
-191 195 0
-187 197 0
-190 197 0
-193 197 0
-196 197 0
-198 197 0
187 190 193 196 198 -197 0
194 -197 0
-194 197 0
-199 200 0
-201 200 0
199 201 -200 0
6 -200 0
-6 200 0
-202 203 0
203 -204 0
202 204 -203 0
199 -203 0
-199 203 0
-205 206 0
206 -207 0
205 207 -206 0
202 -206 0
-202 206 0
205 -208 0
-205 208 0
-209 210 0
210 -211 0
209 211 -210 0
7 -210 0
-7 210 0
-212 213 0
-214 213 0
212 214 -213 0
209 -213 0
-209 213 0
-215 216 0
216 -217 0
215 217 -216 0
212 -216 0
-212 216 0
-218 219 0
-220 219 0
218 220 -219 0
215 -219 0
-215 219 0
-221 222 0
-223 222 0
221 223 -222 0
218 -222 0
-218 222 0
-224 225 0
-226 225 0
224 226 -225 0
221 -225 0
-221 225 0
-227 228 0
-229 228 0
227 229 -228 0
224 -228 0
-224 228 0
-230 231 0
231 -232 0
230 232 -231 0
227 -231 0
-227 231 0
-223 233 0
-226 233 0
-229 233 0
-232 233 0
233 -234 0
223 226 229 232 234 -233 0
230 -233 0
-230 233 0
-235 236 0
-237 236 0
235 237 -236 0
8 -236 0
-8 236 0
-238 239 0
-240 239 0
238 240 -239 0
235 -239 0
-235 239 0
-241 242 0
-243 242 0
241 243 -242 0
238 -242 0
-238 242 0
-244 245 0
245 -246 0
244 246 -245 0
241 -245 0
-241 245 0
-247 248 0
-249 248 0
247 249 -248 0
244 -248 0
-244 248 0
-250 251 0
-252 251 0
250 252 -251 0
247 -251 0
-247 251 0
-253 254 0
254 -255 0
253 255 -254 0
250 -254 0
-250 254 0
-256 257 0
-258 257 0
256 258 -257 0
253 -257 0
-253 257 0
-259 260 0
260 -261 0
259 261 -260 0
256 -260 0
-256 260 0
-255 262 0
-258 262 0
-261 262 0
262 -263 0
255 258 261 263 -262 0
259 -262 0
-259 262 0
-264 265 0
265 -266 0
264 266 -265 0
9 -265 0
-9 265 0
-267 268 0
268 -269 0
267 269 -268 0
264 -268 0
-264 268 0
-270 271 0
-272 271 0
270 272 -271 0
267 -271 0
-267 271 0
-273 274 0
-275 274 0
273 275 -274 0
270 -274 0
-270 274 0
-276 277 0
-278 277 0
276 278 -277 0
273 -277 0
-273 277 0
-279 280 0
280 -281 0
279 281 -280 0
276 -280 0
-276 280 0
-282 283 0
-284 283 0
282 284 -283 0
279 -283 0
-279 283 0
-285 286 0
-287 286 0
285 287 -286 0
282 -286 0
-282 286 0
-288 289 0
-290 289 0
288 290 -289 0
285 -289 0
-285 289 0
-291 292 0
292 -293 0
291 293 -292 0
288 -292 0
-288 292 0
-281 294 0
-284 294 0
-287 294 0
-290 294 0
-293 294 0
294 -295 0
296 0
291 -294 0
-291 294 0
-297 298 0
298 -299 0
297 299 -298 0
10 -298 0
-10 298 0
-300 301 0
-302 301 0
300 302 -301 0
297 -301 0
-297 301 0
-303 304 0
-305 304 0
303 305 -304 0
300 -304 0
-300 304 0
-306 307 0
307 -308 0
306 308 -307 0
303 -307 0
-303 307 0
-309 310 0
310 -311 0
309 311 -310 0
306 -310 0
-306 310 0
-312 313 0
313 -314 0
312 314 -313 0
309 -313 0
-309 313 0
-315 316 0
316 -317 0
315 317 -316 0
312 -316 0
-312 316 0
-311 318 0
-314 318 0
-317 318 0
-319 318 0
311 314 317 319 -318 0
315 -318 0
-315 318 0
-320 321 0
-322 321 0
320 322 -321 0
11 -321 0
-11 321 0
-323 324 0
-325 324 0
323 325 -324 0
320 -324 0
-320 324 0
-326 327 0
327 -328 0
326 328 -327 0
323 -327 0
-323 327 0
-329 330 0
-331 330 0
329 331 -330 0
326 -330 0
-326 330 0
-332 333 0
333 -334 0
332 334 -333 0
329 -333 0
-329 333 0
-325 335 0
-328 335 0
-331 335 0
-334 335 0
335 -336 0
337 0
332 -335 0
-332 335 0
-338 339 0
339 -340 0
338 340 -339 0
12 -339 0
-12 339 0
-341 342 0
342 -343 0
341 343 -342 0
338 -342 0
-338 342 0
-344 345 0
345 -346 0
344 346 -345 0
341 -345 0
-341 345 0
-347 348 0
-349 348 0
347 349 -348 0
344 -348 0
-344 348 0
-350 351 0
351 -352 0
350 352 -351 0
347 -351 0
-347 351 0
-353 354 0
-355 354 0
353 355 -354 0
350 -354 0
-350 354 0
-343 356 0
-346 356 0
-349 356 0
-352 356 0
-355 356 0
-357 356 0
358 0
353 -356 0
-353 356 0
-359 360 0
360 -361 0
359 361 -360 0
13 -360 0
-13 360 0
-362 363 0
363 -364 0
362 364 -363 0
359 -363 0
-359 363 0
-365 366 0
366 -367 0
365 367 -366 0
362 -366 0
-362 366 0
-368 369 0
369 -370 0
368 370 -369 0
365 -369 0
-365 369 0
-371 372 0
-373 372 0
371 373 -372 0
368 -372 0
-368 372 0
-374 375 0
-376 375 0
374 376 -375 0
371 -375 0
-371 375 0
-377 378 0
-379 378 0
377 379 -378 0
374 -378 0
-374 378 0
-380 381 0
-382 381 0
380 382 -381 0
377 -381 0
-377 381 0
-376 383 0
-379 383 0
-382 383 0
383 -384 0
376 379 382 384 -383 0
380 -383 0
-380 383 0
-385 386 0
386 -387 0
385 387 -386 0
14 -386 0
-14 386 0
-388 389 0
-390 389 0
388 390 -389 0
385 -389 0
-385 389 0
-391 392 0
-393 392 0
391 393 -392 0
388 -392 0
-388 392 0
-394 395 0
395 -396 0
394 396 -395 0
391 -395 0
-391 395 0
-397 398 0
-399 398 0
397 399 -398 0
394 -398 0
-394 398 0
-400 401 0
-402 401 0
400 402 -401 0
397 -401 0
-397 401 0
-403 404 0
404 -405 0
403 405 -404 0
400 -404 0
-400 404 0
-406 407 0
-408 407 0
406 408 -407 0
403 -407 0
-403 407 0
-409 410 0
410 -411 0
409 411 -410 0
406 -410 0
-406 410 0
-402 412 0
-405 412 0
-408 412 0
-411 412 0
412 -413 0
414 0
409 -412 0
-409 412 0
-415 416 0
416 -417 0
415 417 -416 0
15 -416 0
-15 416 0
-418 419 0
419 -420 0
418 420 -419 0
415 -419 0
-415 419 0
-421 422 0
422 -423 0
421 423 -422 0
418 -422 0
-418 422 0
-424 425 0
-426 425 0
424 426 -425 0
421 -425 0
-421 425 0
-427 428 0
-429 428 0
427 429 -428 0
424 -428 0
-424 428 0
-430 431 0
-432 431 0
430 432 -431 0
427 -431 0
-427 431 0
-433 434 0
-435 434 0
433 435 -434 0
430 -434 0
-430 434 0
-436 437 0
437 -438 0
436 438 -437 0
433 -437 0
-433 437 0
-439 440 0
440 -441 0
439 441 -440 0
436 -440 0
-436 440 0
-442 443 0
-444 443 0
442 444 -443 0
439 -443 0
-439 443 0
-445 446 0
-447 446 0
445 447 -446 0
442 -446 0
-442 446 0
-435 448 0
-438 448 0
-441 448 0
-444 448 0
-447 448 0
448 -449 0
450 0
445 -448 0
-445 448 0
-451 452 0
-453 452 0
451 453 -452 0
16 -452 0
-16 452 0
-454 455 0
-456 455 0
454 456 -455 0
451 -455 0
-451 455 0
-457 458 0
-459 458 0
457 459 -458 0
454 -458 0
-454 458 0
-460 461 0
-462 461 0
460 462 -461 0
457 -461 0
-457 461 0
-463 464 0
464 -465 0
463 465 -464 0
460 -464 0
-460 464 0
-466 467 0
-468 467 0
466 468 -467 0
463 -467 0
-463 467 0
-469 470 0
-471 470 0
469 471 -470 0
466 -470 0
-466 470 0
-465 472 0
-468 472 0
-471 472 0
472 -473 0
465 468 471 473 -472 0
469 -472 0
-469 472 0
-474 475 0
-476 475 0
474 476 -475 0
17 -475 0
-17 475 0
-477 478 0
-479 478 0
477 479 -478 0
474 -478 0
-474 478 0
-480 481 0
481 -482 0
480 482 -481 0
477 -481 0
-477 481 0
-483 484 0
484 -485 0
483 485 -484 0
480 -484 0
-480 484 0
-486 487 0
487 -488 0
486 488 -487 0
483 -487 0
-483 487 0
-489 490 0
490 -491 0
489 491 -490 0
486 -490 0
-486 490 0
-492 493 0
493 -494 0
492 494 -493 0
489 -493 0
-489 493 0
-495 496 0
496 -497 0
495 497 -496 0
492 -496 0
-492 496 0
-485 498 0
-488 498 0
-491 498 0
-494 498 0
-497 498 0
-499 498 0
500 0
495 -498 0
-495 498 0
-501 502 0
-503 502 0
501 503 -502 0
18 -502 0
-18 502 0
-504 505 0
505 -506 0
504 506 -505 0
501 -505 0
-501 505 0
-507 508 0
508 -509 0
507 509 -508 0
504 -508 0
-504 508 0
-510 511 0
-512 511 0
510 512 -511 0
507 -511 0
-507 511 0
-513 514 0
-515 514 0
513 515 -514 0
510 -514 0
-510 514 0
-516 517 0
-518 517 0
516 518 -517 0
513 -517 0
-513 517 0
-519 520 0
-521 520 0
519 521 -520 0
516 -520 0
-516 520 0
-522 523 0
-524 523 0
522 524 -523 0
519 -523 0
-519 523 0
-525 526 0
526 -527 0
525 527 -526 0
522 -526 0
-522 526 0
-528 529 0
-530 529 0
528 530 -529 0
525 -529 0
-525 529 0
-518 531 0
-521 531 0
-524 531 0
-527 531 0
-530 531 0
531 -532 0
533 0
528 -531 0
-528 531 0
-534 535 0
-536 535 0
534 536 -535 0
19 -535 0
-19 535 0
-537 538 0
-539 538 0
537 539 -538 0
534 -538 0
-534 538 0
-540 541 0
-542 541 0
540 542 -541 0
537 -541 0
-537 541 0
-543 544 0
-545 544 0
543 545 -544 0
540 -544 0
-540 544 0
-546 547 0
547 -548 0
546 548 -547 0
543 -547 0
-543 547 0
-549 550 0
-551 550 0
549 551 -550 0
546 -550 0
-546 550 0
-552 553 0
-554 553 0
552 554 -553 0
549 -553 0
-549 553 0
-555 556 0
-557 556 0
555 557 -556 0
552 -556 0
-552 556 0
-558 559 0
559 -560 0
558 560 -559 0
555 -559 0
-555 559 0
-554 561 0
-557 561 0
-560 561 0
561 -562 0
554 557 560 562 -561 0
558 -561 0
-558 561 0
-563 564 0
564 -565 0
563 565 -564 0
20 -564 0
-20 564 0
-566 567 0
567 -568 0
566 568 -567 0
563 -567 0
-563 567 0
-569 570 0
570 -571 0
569 571 -570 0
566 -570 0
-566 570 0
-572 573 0
-574 573 0
572 574 -573 0
569 -573 0
-569 573 0
-575 576 0
-577 576 0
575 577 -576 0
572 -576 0
-572 576 0
-578 579 0
579 -580 0
578 580 -579 0
575 -579 0
-575 579 0
-581 582 0
-583 582 0
581 583 -582 0
578 -582 0
-578 582 0
-584 585 0
-586 585 0
584 586 -585 0
581 -585 0
-581 585 0
-577 587 0
-580 587 0
-583 587 0
-586 587 0
587 -588 0
589 0
584 -587 0
-584 587 0
-590 591 0
-592 591 0
590 592 -591 0
21 -591 0
-21 591 0
-593 594 0
594 -595 0
593 595 -594 0
590 -594 0
-590 594 0
-596 597 0
-598 597 0
596 598 -597 0
593 -597 0
-593 597 0
-592 599 0
-595 599 0
-598 599 0
-600 599 0
592 595 598 600 -599 0
596 -599 0
-596 599 0
-601 602 0
602 -603 0
601 603 -602 0
22 -602 0
-22 602 0
-604 605 0
-606 605 0
604 606 -605 0
601 -605 0
-601 605 0
-607 608 0
608 -609 0
607 609 -608 0
604 -608 0
-604 608 0
-610 611 0
611 -612 0
610 612 -611 0
607 -611 0
-607 611 0
-613 614 0
-615 614 0
613 615 -614 0
610 -614 0
-610 614 0
-616 617 0
-618 617 0
616 618 -617 0
613 -617 0
-613 617 0
-619 620 0
-621 620 0
619 621 -620 0
616 -620 0
-616 620 0
-622 623 0
623 -624 0
622 624 -623 0
619 -623 0
-619 623 0
-618 625 0
-621 625 0
-624 625 0
625 -626 0
618 621 624 626 -625 0
622 -625 0
-622 625 0
-627 628 0
-629 628 0
627 629 -628 0
23 -628 0
-23 628 0
-630 631 0
-632 631 0
630 632 -631 0
627 -631 0
-627 631 0
-633 634 0
634 -635 0
633 635 -634 0
630 -634 0
-630 634 0
-636 637 0
-638 637 0
636 638 -637 0
633 -637 0
-633 637 0
-639 640 0
640 -641 0
639 641 -640 0
636 -640 0
-636 640 0
-642 643 0
643 -644 0
642 644 -643 0
639 -643 0
-639 643 0
-645 646 0
-647 646 0
645 647 -646 0
642 -646 0
-642 646 0
-648 649 0
-650 649 0
648 650 -649 0
645 -649 0
-645 649 0
-651 652 0
-653 652 0
651 653 -652 0
648 -652 0
-648 652 0
-654 655 0
655 -656 0
654 656 -655 0
651 -655 0
-651 655 0
-657 658 0
658 -659 0
657 659 -658 0
654 -658 0
-654 658 0
-647 660 0
-650 660 0
-653 660 0
-656 660 0
-659 660 0
-661 660 0
662 0
657 -660 0
-657 660 0
-663 664 0
664 -665 0
663 665 -664 0
24 -664 0
-24 664 0
-666 667 0
667 -668 0
666 668 -667 0
663 -667 0
-663 667 0
-669 670 0
670 -671 0
669 671 -670 0
666 -670 0
-666 670 0
-672 673 0
673 -674 0
672 674 -673 0
669 -673 0
-669 673 0
-675 676 0
676 -677 0
675 677 -676 0
672 -676 0
-672 676 0
-678 679 0
-680 679 0
678 680 -679 0
675 -679 0
-675 679 0
-681 682 0
682 -683 0
681 683 -682 0
678 -682 0
-678 682 0
-674 684 0
-677 684 0
-680 684 0
-683 684 0
-685 684 0
686 0
681 -684 0
-681 684 0
-687 688 0
688 -689 0
687 689 -688 0
25 -688 0
-25 688 0
-690 691 0
-692 691 0
690 692 -691 0
687 -691 0
-687 691 0
-693 694 0
694 -695 0
693 695 -694 0
690 -694 0
-690 694 0
-696 697 0
-698 697 0
696 698 -697 0
693 -697 0
-693 697 0
-699 700 0
-701 700 0
699 701 -700 0
696 -700 0
-696 700 0
-695 702 0
-698 702 0
-701 702 0
702 -703 0
695 698 701 703 -702 0
699 -702 0
-699 702 0
26 -704 0
-26 704 0
27 -705 0
-27 705 0
28 -706 0
-28 706 0
29 -707 0
-29 707 0
30 -708 0
-30 708 0
31 -709 0
-31 709 0
32 -710 0
-32 710 0
33 -711 0
-33 711 0
34 -712 0
-34 712 0
35 -713 0
-35 713 0
36 -714 0
-36 714 0
37 -715 0
-37 715 0
38 -716 0
-38 716 0
39 -717 0
-39 717 0
40 -718 0
-40 718 0
41 -719 0
-41 719 0
42 -720 0
-42 720 0
43 -721 0
-43 721 0
44 -722 0
-44 722 0
45 -723 0
-45 723 0
46 -724 0
-46 724 0
47 -725 0
-47 725 0
48 -726 0
-48 726 0
49 -727 0
-49 727 0
50 -728 0
-50 728 0
53 -729 0
-729 -56 0
-729 -59 0
-729 -62 0
65 -729 0
68 -729 0
71 -729 0
74 -729 0
77 -729 0
-729 -80 0
-729 -82 0
-729 -86 0
-729 -89 0
92 -729 0
-729 -95 0
98 -729 0
101 -729 0
-729 -104 0
-729 -106 0
109 -729 0
-729 -112 0
115 -729 0
118 -729 0
121 -729 0
124 -729 0
-729 -127 0
-729 -130 0
-729 -133 0
136 -729 0
-729 -138 0
142 -729 0
145 -729 0
148 -729 0
-729 -151 0
154 -729 0
157 -729 0
-729 -160 0
-729 -163 0
-729 -166 0
169 -729 0
-729 -171 0
175 -729 0
178 -729 0
-729 -181 0
184 -729 0
-729 -187 0
-729 -190 0
193 -729 0
196 -729 0
-729 -198 0
-729 -201 0
204 -729 0
207 -729 0
-729 -208 0
211 -729 0
-729 -214 0
217 -729 0
-729 -220 0
-729 -223 0
-729 -226 0
-729 -229 0
232 -729 0
234 -729 0
-729 -237 0
-729 -240 0
-729 -243 0
246 -729 0
-729 -249 0
-729 -252 0
255 -729 0
-729 -258 0
261 -729 0
263 -729 0
266 -729 0
269 -729 0
-729 -272 0
-729 -275 0
-729 -278 0
281 -729 0
-729 -284 0
-729 -287 0
-729 -290 0
293 -729 0
295 -729 0
299 -729 0
-729 -302 0
-729 -305 0
308 -729 0
311 -729 0
314 -729 0
317 -729 0
-729 -319 0
-729 -322 0
-729 -325 0
328 -729 0
-729 -331 0
334 -729 0
336 -729 0
340 -729 0
343 -729 0
346 -729 0
-729 -349 0
352 -729 0
-729 -355 0
-729 -357 0
361 -729 0
364 -729 0
367 -729 0
370 -729 0
-729 -373 0
-729 -376 0
-729 -379 0
-729 -382 0
384 -729 0
387 -729 0
-729 -390 0
-729 -393 0
396 -729 0
-729 -399 0
-729 -402 0
405 -729 0
-729 -408 0
411 -729 0
413 -729 0
417 -729 0
420 -729 0
423 -729 0
-729 -426 0
-729 -429 0
-729 -432 0
-729 -435 0
438 -729 0
441 -729 0
-729 -444 0
-729 -447 0
449 -729 0
-729 -453 0
-729 -456 0
-729 -459 0
-729 -462 0
465 -729 0
-729 -468 0
-729 -471 0
473 -729 0
-729 -476 0
-729 -479 0
482 -729 0
485 -729 0
488 -729 0
491 -729 0
494 -729 0
497 -729 0
-729 -499 0
-729 -503 0
506 -729 0
509 -729 0
-729 -512 0
-729 -515 0
-729 -518 0
-729 -521 0
-729 -524 0
527 -729 0
-729 -530 0
532 -729 0
-729 -536 0
-729 -539 0
-729 -542 0
-729 -545 0
548 -729 0
-729 -551 0
-729 -554 0
-729 -557 0
560 -729 0
562 -729 0
565 -729 0
568 -729 0
571 -729 0
-729 -574 0
-729 -577 0
580 -729 0
-729 -583 0
-729 -586 0
588 -729 0
-729 -592 0
595 -729 0
-729 -598 0
-729 -600 0
603 -729 0
-729 -606 0
609 -729 0
612 -729 0
-729 -615 0
-729 -618 0
-729 -621 0
624 -729 0
626 -729 0
-729 -629 0
-729 -632 0
635 -729 0
-729 -638 0
641 -729 0
644 -729 0
-729 -647 0
-729 -650 0
-729 -653 0
656 -729 0
659 -729 0
-729 -661 0
665 -729 0
668 -729 0
671 -729 0
674 -729 0
677 -729 0
-729 -680 0
683 -729 0
-729 -685 0
689 -729 0
-729 -692 0
695 -729 0
-729 -698 0
-729 -701 0
703 -729 0
-729 -704 0
-729 -705 0
-729 -706 0
-729 -707 0
-729 -708 0
-729 -709 0
-729 -710 0
-729 -711 0
-729 -712 0
-729 -713 0
-729 -714 0
-729 -715 0
-729 -716 0
-729 -717 0
-729 -718 0
-729 -719 0
-729 -720 0
-729 -721 0
-729 -722 0
-729 -723 0
-729 -724 0
-729 -725 0
-729 -726 0
-729 -727 0
-729 -728 0
729 0
-730 0
-731 0
-732 0
-733 0
-734 0
-735 0
-736 0
-737 0
